========================================================== 
File name: C:\DEGR\assets\definitions\MSRCPSP_Gen\500_20_512_5_A.def
Creation date: Sat May 06 09:15:46 CEST 2023
Website: http://imopse.ii.pwr.edu.pl/ 
Reference: 
Myszkowski P. B., Skowronski M. E., Olech L., Oslizlo K., 
Hybrid Ant Colony Optimization in solving Multi-Skill Resource-Constrained Project Scheduling Problem, 
Soft Computing, DOI: DOI 10.1007/s00500-014-1455-x 
========================================================== 
General characteristics: 
Tasks: 500
Resources: 20
Precedence relations: 511
Number of skill types: 5
========================================================== 
ResourceID 	 Salary 	 Skills 
1	 	 	71.5	 	 Q1: 1 	  Q4: 3 	 
2	 	 	40.9	 	 Q3: 2 	  Q1: 1 	 
3	 	 	35.1	 	 Q0: 2 	 
4	 	 	38.8	 	 Q0: 1 	  Q3: 1 	 
5	 	 	50.7	 	 Q0: 1 	  Q2: 3 	  Q4: 1 	  Q1: 3 	 
6	 	 	87.2	 	 Q3: 3 	 
7	 	 	73.5	 	 Q0: 3 	  Q3: 1 	  Q4: 2 	 
8	 	 	66.6	 	 Q2: 0 	  Q0: 0 	 
9	 	 	78.5	 	 Q3: 0 	 
10	 	 	23.8	 	 Q0: 2 	  Q1: 1 	 
11	 	 	37.8	 	 Q4: 2 	  Q2: 3 	  Q1: 2 	  Q3: 1 	 
12	 	 	16.2	 	 Q3: 3 	 
13	 	 	96.6	 	 Q2: 2 	  Q0: 0 	  Q3: 2 	  Q4: 0 	 
14	 	 	86.7	 	 Q4: 3 	  Q1: 3 	 
15	 	 	52.7	 	 Q4: 2 	  Q2: 1 	  Q3: 3 	 
16	 	 	43.9	 	 Q0: 1 	  Q3: 0 	  Q4: 3 	  Q1: 2 	 
17	 	 	62.0	 	 Q0: 3 	  Q3: 3 	  Q4: 0 	 
18	 	 	45.2	 	 Q1: 2 	 
19	 	 	94.0	 	 Q4: 1 	 
20	 	 	21.0	 	 Q0: 2 	  Q4: 3 	 
========================================================== 
TaskID 	 Duration 	 Skill 	 Predecessor IDs 
1	32	Q2:	1
2	17	Q0:	3
3	15	Q4:	2
4	12	Q1:	2
5	22	Q1:	2
6	26	Q2:	1
7	29	Q0:	1
8	25	Q4:	3
9	10	Q4:	3
10	32	Q0:	1
11	31	Q3:	3
12	23	Q0:	3
13	31	Q0:	2
14	11	Q4:	3
15	23	Q2:	2
16	29	Q0:	1
17	26	Q1:	2
18	19	Q2:	1
19	38	Q2:	2
20	15	Q1:	3	9
21	39	Q3:	0
22	16	Q0:	3
23	40	Q0:	0
24	40	Q0:	3
25	35	Q3:	1
26	34	Q0:	2
27	21	Q1:	2
28	21	Q2:	2
29	24	Q0:	0
30	23	Q1:	2	14
31	18	Q3:	1
32	22	Q4:	1
33	16	Q4:	0
34	39	Q1:	3
35	34	Q1:	3
36	9	Q1:	1
37	15	Q2:	2
38	18	Q2:	2
39	13	Q1:	3
40	26	Q1:	3
41	26	Q4:	3
42	29	Q1:	3
43	10	Q0:	3
44	14	Q0:	3	27
45	12	Q0:	3
46	36	Q3:	2
47	15	Q1:	1
48	27	Q3:	0
49	9	Q1:	1
50	20	Q4:	0
51	22	Q0:	0	2	9
52	26	Q4:	0	26
53	10	Q0:	1	18
54	37	Q0:	3	22
55	33	Q4:	0
56	12	Q1:	3
57	15	Q3:	1
58	35	Q0:	0
59	36	Q0:	0	9
60	35	Q4:	2
61	26	Q0:	2	4	43
62	37	Q1:	2
63	9	Q3:	2
64	26	Q4:	3
65	28	Q3:	0
66	28	Q2:	0
67	15	Q2:	3
68	20	Q3:	2
69	22	Q2:	3	38
70	24	Q2:	2
71	26	Q3:	1
72	22	Q0:	1
73	31	Q1:	1
74	16	Q2:	0
75	18	Q4:	0	67
76	16	Q4:	1	46
77	25	Q0:	1
78	29	Q4:	3
79	39	Q0:	3
80	39	Q0:	2
81	21	Q1:	2
82	29	Q2:	3
83	26	Q2:	3
84	37	Q4:	2
85	11	Q3:	3
86	32	Q4:	2
87	11	Q4:	1
88	18	Q3:	1
89	34	Q2:	1
90	37	Q4:	2	88	50
91	36	Q2:	0
92	20	Q0:	0	73
93	16	Q4:	3
94	20	Q0:	1	64	25
95	34	Q1:	3
96	19	Q2:	0	46
97	28	Q0:	3	45
98	20	Q2:	1
99	37	Q4:	0	73	87
100	40	Q2:	0	40	16
101	37	Q0:	3
102	16	Q3:	1	18	30
103	17	Q4:	3
104	20	Q0:	0
105	10	Q2:	1
106	34	Q3:	1
107	10	Q0:	3	94
108	33	Q3:	3	14
109	34	Q3:	3
110	17	Q4:	3	4
111	37	Q0:	1	43	64
112	27	Q3:	1
113	27	Q2:	3
114	20	Q4:	1
115	22	Q4:	1
116	24	Q4:	3	107
117	30	Q0:	2	97
118	33	Q2:	3
119	29	Q2:	2	22
120	12	Q4:	0
121	36	Q4:	2	58	56
122	40	Q0:	0	109
123	15	Q1:	1
124	22	Q3:	2
125	29	Q0:	2
126	11	Q3:	2	5
127	13	Q1:	1
128	37	Q2:	2
129	22	Q1:	1
130	39	Q1:	1
131	36	Q2:	3
132	40	Q3:	3
133	25	Q0:	0
134	25	Q0:	0	70
135	15	Q3:	1	67
136	28	Q3:	3
137	12	Q2:	2	112
138	27	Q0:	3
139	25	Q0:	2	36
140	34	Q0:	0	96
141	23	Q2:	1
142	38	Q2:	0	103
143	11	Q4:	3	10
144	28	Q2:	0	67
145	28	Q2:	2	30
146	22	Q4:	2
147	37	Q4:	0	94	95
148	18	Q3:	1
149	33	Q2:	3	138
150	40	Q4:	0
151	13	Q2:	0
152	23	Q2:	2
153	37	Q2:	3	34
154	11	Q2:	1	99
155	19	Q4:	2	128
156	19	Q0:	3
157	11	Q0:	2	154	50
158	36	Q0:	0
159	29	Q4:	0	115
160	28	Q3:	2
161	38	Q4:	3
162	36	Q1:	1	118	14	77	9
163	32	Q4:	3
164	27	Q0:	3	105
165	21	Q0:	0
166	25	Q2:	1	45	113
167	17	Q2:	3
168	17	Q4:	2
169	16	Q3:	2	36
170	32	Q0:	2	5
171	13	Q0:	3
172	13	Q2:	0
173	14	Q0:	3	24	50	74
174	34	Q0:	0	6
175	21	Q3:	2	36
176	22	Q2:	0	29	98
177	18	Q3:	3	38	82
178	19	Q3:	2	116
179	13	Q2:	2	55
180	38	Q3:	2	8	111	90
181	38	Q1:	1	118
182	38	Q4:	2
183	9	Q3:	1
184	29	Q4:	2
185	24	Q4:	3	35
186	11	Q1:	1
187	15	Q0:	1	102	137
188	14	Q0:	0	26	160
189	30	Q3:	1
190	38	Q3:	1
191	14	Q3:	0	106
192	14	Q0:	2
193	15	Q3:	0
194	19	Q3:	0	70
195	27	Q2:	3	88
196	19	Q3:	1	30
197	9	Q1:	1
198	23	Q3:	3
199	18	Q1:	3
200	22	Q3:	2	172	103
201	35	Q0:	0
202	26	Q0:	3
203	33	Q4:	2	136
204	24	Q1:	2
205	36	Q1:	1	14
206	33	Q2:	0
207	13	Q4:	3	20	22
208	36	Q0:	1
209	34	Q2:	3
210	32	Q2:	0	169
211	15	Q2:	1	38	36
212	33	Q4:	1
213	25	Q4:	1	195
214	32	Q4:	2
215	16	Q2:	3
216	28	Q3:	1	125
217	27	Q2:	3	35
218	19	Q3:	3	93	75
219	31	Q3:	0
220	12	Q3:	0	15
221	27	Q4:	1	115
222	29	Q4:	0	54	220
223	25	Q4:	3	77	88	71
224	36	Q4:	1	60
225	23	Q0:	2	113
226	39	Q1:	3
227	25	Q3:	1
228	15	Q3:	0
229	39	Q1:	2
230	26	Q0:	3	12
231	12	Q0:	1	18	225
232	25	Q1:	2	185	216
233	27	Q1:	1	69
234	12	Q1:	2	149	154
235	11	Q1:	1
236	37	Q3:	2
237	32	Q2:	0
238	26	Q3:	1	93	127	118
239	25	Q0:	3	75
240	26	Q3:	3	148
241	24	Q3:	1
242	35	Q2:	2	58	24
243	10	Q4:	3	107
244	30	Q1:	2	122	47	217
245	32	Q2:	1
246	11	Q0:	1
247	31	Q2:	2	125
248	23	Q4:	1	122	85
249	11	Q4:	0	211
250	17	Q3:	1	46	240
251	40	Q3:	2	172
252	39	Q2:	2	84
253	13	Q0:	1	231	154	65
254	34	Q1:	1	163
255	10	Q1:	3	33
256	13	Q0:	1
257	37	Q4:	3	45
258	19	Q4:	0
259	35	Q0:	2	106
260	25	Q4:	0	115	226
261	30	Q1:	3	27
262	16	Q3:	1	95
263	34	Q0:	3	245
264	38	Q4:	1	148
265	12	Q1:	2	224
266	37	Q0:	0
267	14	Q2:	3	41	32
268	20	Q1:	2	191
269	29	Q0:	1
270	36	Q2:	3	10	196
271	28	Q2:	3
272	33	Q0:	1
273	18	Q3:	2	259	192	89
274	18	Q1:	2
275	29	Q4:	1
276	26	Q1:	3	213
277	18	Q0:	1
278	25	Q0:	2	264
279	30	Q0:	3	207
280	12	Q0:	2	29	109
281	19	Q4:	0
282	16	Q1:	3	199
283	17	Q1:	1	232	270	217
284	39	Q3:	1	219	74
285	21	Q2:	3
286	9	Q0:	1	78
287	36	Q2:	2	55
288	26	Q2:	1	42	114
289	12	Q0:	2
290	9	Q3:	3	187
291	19	Q4:	3	154	144
292	24	Q4:	3	205
293	25	Q4:	0	232	192
294	31	Q1:	3
295	19	Q4:	2	41	199	6
296	40	Q1:	3	182	128
297	38	Q0:	1	171	51
298	38	Q4:	0	294	113
299	22	Q1:	3	54
300	35	Q2:	3	173
301	31	Q0:	1	178	138
302	14	Q0:	0	266
303	26	Q3:	2	126	198
304	15	Q4:	2
305	36	Q2:	0
306	21	Q4:	3	153	10
307	25	Q4:	3	172	243	82	181
308	17	Q0:	2	172
309	34	Q3:	1	220
310	17	Q3:	1	5	95
311	21	Q2:	3	213
312	25	Q2:	2	147	246
313	20	Q3:	2
314	31	Q2:	2	230	215
315	35	Q4:	1
316	34	Q4:	1	221
317	36	Q1:	3	240
318	23	Q2:	0
319	40	Q0:	3	54
320	26	Q1:	3	92
321	28	Q4:	2
322	30	Q2:	0	168
323	34	Q0:	1	294	270
324	25	Q0:	3	57
325	12	Q4:	0	60	277	20
326	28	Q2:	1	312
327	25	Q2:	1	245	247
328	38	Q0:	1	228	291
329	17	Q3:	1	7
330	39	Q0:	3	85	174
331	28	Q3:	3	217	107
332	18	Q1:	2	166	190
333	19	Q2:	3	34	103
334	17	Q4:	2	291	249
335	36	Q0:	2	249	324	319
336	18	Q4:	1	191
337	24	Q0:	2	271
338	14	Q4:	1	292
339	16	Q3:	2	305
340	9	Q3:	0	67
341	10	Q4:	0
342	38	Q4:	1	118	330
343	10	Q4:	2	224
344	30	Q4:	1	293	155	205
345	38	Q4:	2	245	266	158
346	28	Q4:	1	3
347	20	Q4:	1	172	124	316
348	35	Q3:	2	20	319
349	24	Q1:	2	236
350	30	Q2:	3	315	195
351	36	Q2:	2	172	185
352	12	Q4:	2	327	36
353	28	Q3:	2	182
354	31	Q3:	0	123
355	40	Q4:	1	127	91
356	22	Q0:	0	278
357	38	Q4:	0
358	9	Q1:	1	196	217
359	36	Q0:	3	159	313
360	23	Q3:	1	84	179
361	34	Q2:	0	23	74
362	9	Q2:	1
363	19	Q4:	3	31
364	16	Q3:	3	69	158
365	14	Q2:	1	318
366	24	Q0:	1	76	153
367	14	Q3:	3	73	298
368	29	Q3:	2
369	35	Q4:	1
370	15	Q0:	0	2	142
371	28	Q0:	3	313	278
372	32	Q3:	0	273	77
373	37	Q4:	0	271	146
374	29	Q2:	3	95	162
375	15	Q3:	2	127	5	106
376	17	Q0:	2	202
377	10	Q2:	3	321
378	9	Q3:	3
379	15	Q2:	0	4
380	33	Q2:	0	214	248
381	9	Q0:	3	266	16	246	55
382	34	Q1:	2	90
383	16	Q0:	3	295
384	10	Q4:	2	285
385	10	Q1:	3	162
386	33	Q1:	2	74
387	23	Q1:	1	67	97
388	14	Q0:	2	358	59
389	11	Q0:	3
390	33	Q0:	2
391	13	Q1:	2	171	57
392	15	Q1:	3	194
393	37	Q4:	1	181
394	14	Q3:	0	386
395	24	Q0:	1	331	20
396	14	Q0:	3	194	337	17	380	141	133
397	29	Q0:	3	188	305
398	39	Q4:	2	57	71
399	11	Q0:	1
400	26	Q4:	0	57	216
401	15	Q0:	2	222
402	15	Q3:	0
403	27	Q1:	2	125	240
404	34	Q2:	1
405	40	Q1:	3	153	165
406	23	Q4:	1	137	144	218
407	39	Q3:	3	137	196	150
408	21	Q2:	3	93
409	34	Q2:	3	197	265
410	10	Q2:	0	84
411	20	Q3:	0	285
412	19	Q4:	1	302	164
413	22	Q0:	2
414	11	Q0:	1
415	11	Q0:	1	80
416	9	Q3:	0	143
417	38	Q2:	1	167	242
418	34	Q4:	0
419	39	Q4:	2
420	25	Q3:	1	266	353
421	23	Q2:	3	104
422	32	Q3:	2	218
423	35	Q4:	1
424	31	Q0:	1
425	33	Q1:	3	354	406	30
426	28	Q3:	2	262	306
427	20	Q4:	1	186	32	268	373	334	45	232
428	34	Q4:	3	345	276	379
429	24	Q2:	3	280
430	12	Q4:	1	242	406	10	256
431	19	Q3:	2	64	96
432	14	Q4:	0	344
433	38	Q4:	0	329	366	160
434	23	Q4:	3	18	124
435	39	Q3:	1
436	39	Q1:	1	234	416
437	15	Q2:	1	166
438	38	Q4:	0	371	267
439	35	Q1:	2
440	26	Q1:	1	235	403	124	17
441	16	Q1:	1	19	67	424
442	38	Q1:	3	336	368
443	20	Q3:	0	134
444	17	Q4:	3	367	68
445	32	Q2:	3
446	21	Q2:	3	230
447	9	Q3:	2	442	49
448	24	Q4:	1
449	34	Q1:	3
450	17	Q0:	0	139	217	110
451	13	Q2:	0	157
452	20	Q2:	1	261
453	38	Q1:	3	445
454	35	Q4:	3	335
455	9	Q1:	2	389	438	48
456	23	Q4:	3	39
457	19	Q0:	3	53	445	181	384
458	33	Q0:	2	31
459	26	Q3:	0	6	187
460	36	Q4:	1	104
461	30	Q0:	2	411	90
462	26	Q4:	2	279	120	189
463	12	Q4:	2	159	87
464	28	Q2:	2	144	350	285	132
465	39	Q1:	1
466	31	Q1:	1	397	228
467	34	Q0:	1	361	282
468	30	Q3:	1
469	37	Q0:	2	354
470	39	Q3:	2
471	34	Q4:	2	349	145
472	36	Q3:	2
473	26	Q0:	0	301	299
474	25	Q3:	3	108	111	117
475	25	Q3:	1	160	340
476	35	Q1:	1	348	451	68
477	38	Q1:	1
478	16	Q4:	3	111
479	28	Q1:	1	88	72	437	57
480	40	Q2:	1	428	246
481	28	Q2:	3
482	28	Q1:	2	478	33	301
483	13	Q4:	2	347	404	150	462
484	35	Q3:	3	353	126
485	10	Q4:	0	251	392	124	140	159
486	35	Q3:	2	169
487	24	Q2:	0	280
488	22	Q0:	3	348	445
489	32	Q3:	3	407	107
490	10	Q1:	1	321
491	22	Q4:	0	112	58	379
492	34	Q3:	0	409	241	427
493	27	Q4:	3	481
494	9	Q0:	0	428	180
495	38	Q2:	0
496	20	Q4:	0	180	76
497	40	Q0:	3	283
498	14	Q4:	0	255	202	97
499	26	Q2:	1	128	313	433
500	26	Q1:	2	209	394
========================================================== 